node 0 w: 7.0, h: 9.0
node 1 w: 5.0, h: 8.0
node 2 w: 7.0, h: 8.0
node 3 w: 12.0, h: 9.0
node 4 w: 12.0, h: 12.0
node 5 w: 11.0, h: 12.0
node 6 w: 6.0, h: 8.0
node 7 w: 11.0, h: 11.0
node 8 w: 10.0, h: 11.0
node 9 w: 11.0, h: 8.0
node 10 w: 11.0, h: 9.0
node 11 w: 10.0, h: 5.0
连接统计: 总计 26 对
连接关系（EMIBNode 内容）:
  (A,C): node1=A, node2=C, wireCount=128, EMIBType=interfaceC, EMIB_length=3.2, EMIB_max_width=99.0, width=1.0, height=3.2, bump_width=0.5000
  (A,E): node1=A, node2=E, wireCount=128, EMIBType=interfaceC, EMIB_length=3.2, EMIB_max_width=99.0, width=1.0, height=3.2, bump_width=0.5000
  (A,F): node1=A, node2=F, wireCount=512, EMIBType=interfaceB, EMIB_length=1.7067, EMIB_max_width=3.0, width=2.0, height=1.7067, bump_width=1.0000
  (A,G): node1=A, node2=G, wireCount=128, EMIBType=interfaceC, EMIB_length=3.2, EMIB_max_width=99.0, width=1.0, height=3.2, bump_width=0.5000
  (A,H): node1=A, node2=H, wireCount=512, EMIBType=interfaceB, EMIB_length=1.7067, EMIB_max_width=3.0, width=2.0, height=1.7067, bump_width=1.0000
  (A,I): node1=A, node2=I, wireCount=256, EMIBType=interfaceB, EMIB_length=0.8533, EMIB_max_width=3.0, width=2.0, height=0.8533, bump_width=1.0000
  (B,C): node1=B, node2=C, wireCount=256, EMIBType=interfaceB, EMIB_length=0.8533, EMIB_max_width=3.0, width=2.0, height=0.8533, bump_width=1.0000
  (B,E): node1=B, node2=E, wireCount=512, EMIBType=interfaceB, EMIB_length=1.7067, EMIB_max_width=3.0, width=2.0, height=1.7067, bump_width=1.0000
  (B,L): node1=B, node2=L, wireCount=256, EMIBType=interfaceB, EMIB_length=0.8533, EMIB_max_width=3.0, width=2.0, height=0.8533, bump_width=1.0000
  (C,H): node1=C, node2=H, wireCount=256, EMIBType=interfaceB, EMIB_length=0.8533, EMIB_max_width=3.0, width=2.0, height=0.8533, bump_width=1.0000
  (C,J): node1=C, node2=J, wireCount=128, EMIBType=interfaceC, EMIB_length=3.2, EMIB_max_width=99.0, width=1.0, height=3.2, bump_width=0.5000
  (C,L): node1=C, node2=L, wireCount=512, EMIBType=interfaceB, EMIB_length=1.7067, EMIB_max_width=3.0, width=2.0, height=1.7067, bump_width=1.0000
  (D,G): node1=D, node2=G, wireCount=256, EMIBTy2026-03-05 18:28:54 - INFO - Set parameter WLSAccessID
2026-03-05 18:28:54 - INFO - Set parameter WLSSecret
2026-03-05 18:28:54 - INFO - Set parameter LicenseID to value 2756663
2026-03-05 18:28:54 - INFO - Academic license 2756663 - for non-commercial use only - registered to hu___@sjtu.edu.cn
2026-03-05 18:28:54 - INFO - Set parameter TimeLimit to value 300
2026-03-05 18:28:54 - INFO - Set parameter MIPGap to value 0
2026-03-05 18:28:54 - INFO - Set parameter MIPFocus to value 3
2026-03-05 18:28:54 - INFO - Set parameter Heuristics to value 0.5
2026-03-05 18:28:54 - INFO - Set parameter LogToConsole to value 1
2026-03-05 18:28:54 - INFO - Gurobi Optimizer version 13.0.0 build v13.0.0rc1 (linux64 - "Ubuntu 20.04.6 LTS")
2026-03-05 18:28:54 - INFO - 
2026-03-05 18:28:54 - INFO - CPU model: AMD Ryzen 9 9950X3D 16-Core Processor, instruction set [SSE2|AVX|AVX2|AVX512]
2026-03-05 18:28:54 - INFO - Thread count: 6 physical cores, 12 logical processors, using up to 12 threads
2026-03-05 18:28:54 - INFO - 
2026-03-05 18:28:54 - INFO - Non-default parameters:
2026-03-05 18:28:54 - INFO - TimeLimit  300
2026-03-05 18:28:54 - INFO - MIPGap  0
2026-03-05 18:28:54 - INFO - Heuristics  0.5
2026-03-05 18:28:54 - INFO - MIPFocus  3
2026-03-05 18:28:54 - INFO - 
2026-03-05 18:28:54 - INFO - Academic license 2756663 - for non-commercial use only - registered to hu___@sjtu.edu.cn
2026-03-05 18:28:54 - INFO - Optimize a model with 2256 rows, 1025 columns and 7826 nonzeros (Min)
2026-03-05 18:28:54 - INFO - Model fingerprint: 0x33e3f9b4
2026-03-05 18:28:54 - INFO - Model has 3 linear objective coefficients
2026-03-05 18:28:54 - INFO - Variable types: 367 continuous, 658 integer (658 binary)
2026-03-05 18:28:54 - INFO - Coefficient statistics:
2026-03-05 18:28:54 - INFO -   Matrix range     [3e-01, 5e+02]
2026-03-05 18:28:54 - INFO -   Objective range  [4e-05, 9e-02]
2026-03-05 18:28:54 - INFO -   Bounds range     [9e-01, 3e+07]
2026-03-05 18:28:54 - INFO -   RHS range        [9e-01, 3e+02]
2026-03-05 18:28:54 - INFO - Presolve removed 172 rows and 150 columns
2026-03-05 18:28:54 - INFO - Presolve time: 0.01s
2026-03-05 18:28:54 - INFO - Presolved: 2084 rows, 875 columns, 7284 nonzeros
2026-03-05 18:28:54 - INFO - Variable types: 255 continuous, 620 integer (620 binary)
2026-03-05 18:28:54 - INFO - Root relaxation presolve removed 176 rows and 36 columns
2026-03-05 18:28:54 - INFO - Root relaxation presolved: 1908 rows, 871 columns, 6892 nonzeros
2026-03-05 18:28:54 - INFO - 
2026-03-05 18:28:54 - INFO - 
2026-03-05 18:28:54 - INFO - Root relaxation: objective 1.770005e+00, 421 iterations, 0.00 seconds (0.01 work units)
2026-03-05 18:28:55 - INFO - 
2026-03-05 18:28:55 - INFO -     Nodes    |    Current Node    |     Objective Bounds      |     Work
2026-03-05 18:28:55 - INFO -  Expl Unexpl |  Obj  Depth IntInf | Incumbent    BestBd   Gap | It/Node Time
2026-03-05 18:28:55 - INFO - 
2026-03-05 18:28:55 - INFO -      0     0    1.77001    0  252          -    1.77001      -     -    0s
2026-03-05 18:28:55 - INFO -      0     0    3.23837    0  265          -    3.23837      -     -    0s
2026-03-05 18:28:55 - INFO -      0     0    3.23837    0  257          -    3.23837      -     -    0s
2026-03-05 18:28:55 - INFO -      0     0    3.25988    0  266          -    3.25988      -     -    0s
2026-03-05 18:28:55 - INFO -      0     0    3.32332    0  319          -    3.32332      -     -    0s
2026-03-05 18:28:55 - INFO -      0     0    3.32332    0  277          -    3.32332      -     -    0s
2026-03-05 18:28:55 - INFO -      0     0    3.76024    0  291          -    3.76024      -     -    0s
2026-03-05 18:28:55 - INFO -      0     0    3.91124    0  325          -    3.91124      -     -    0s
2026-03-05 18:28:55 - INFO -      0     0    3.91124    0  325          -    3.91124      -     -    0s
2026-03-05 18:28:56 - INFO -      0     0    3.91124    0  317          -    3.91124      -     -    1s
2026-03-05 18:28:56 - INFO -      0     0    4.08078    0  317          -    4.08078      -     -    1s
2026-03-05 18:28:56 - INFO -      0     0    4.08078    0  298          -    4.08078      -     -    1s
2026-03-05 18:28:57 - INFO -      0     2    4.08078    0  301          -    4.08078      -     -    2s
2026-03-05 18:29:00 - INFO -   1360  1321    4.97608   14  407          -    4.49703      -  81.8    5s
2026-03-05 18:29:04 - INFO -   2022  1747    5.12948   19  252          -    5.12948      -   135   10s
2026-03-05 18:29:10 - INFO -   5000  2724    6.65791   19  226          -    5.43908      -   142   15s
2026-03-05 18:29:15 - INFO -   8394  3559 infeasible   23               -    5.60072      -   143   20s
2026-03-05 18:29:20 - INFO -   9289  3742    5.99387   23  187          -    5.69190      -   148   25s
2026-03-05 18:29:25 - INFO -  14164  3838    6.25928   21  197          -    5.92329      -   147   30s
2026-03-05 18:29:31 - INFO -  18420  4113    6.51776   29  144          -    6.21559      -   146   36s
2026-03-05 18:29:35 - INFO -  22074  4329    6.53797   25  189          -    6.37151      -   142   40s
2026-03-05 18:29:40 - INFO -  24927  4429 infeasible   25               -    6.42503      -   140   45s
2026-03-05 18:29:45 - INFO -  29773  4251 infeasible   26               -    6.61111      -   138   50s
2026-03-05 18:29:50 - INFO -  33837  3775    6.92552   26  186          -    6.78892      -   137   55s
2026-03-05 18:29:55 - INFO -  36636  3074    7.34059   25  143          -    6.98321      -   136   60s
2026-03-05 18:30:00 - INFO -  42481  1180 infeasible   34               -    7.55588      -   134   65s
2026-03-05 18:30:04 - INFO - 
2026-03-05 18:30:04 - INFO - Cutting planes:
2026-03-05 18:30:04 - INFO -   Learned: 44
2026-03-05 18:30:04 - INFO -   Gomory: 238
2026-03-05 18:30:04 - INFO -   Lift-and-project: 79
2026-03-05 18:30:04 - INFO -   Cover: 7
2026-03-05 18:30:04 - INFO -   Implied bound: 1
2026-03-05 18:30:04 - INFO -   MIR: 91
2026-03-05 18:30:04 - INFO -   Mixing: 2
2026-03-05 18:30:04 - INFO -   Flow cover: 534
2026-03-05 18:30:04 - INFO -   Inf proof: 19
2026-03-05 18:30:04 - INFO -   Network: 1
2026-03-05 18:30:04 - INFO -   RLT: 2
2026-03-05 18:30:04 - INFO -   Relax-and-lift: 9
2026-03-05 18:30:04 - INFO - 
2026-03-05 18:30:04 - INFO - Explored 46665 nodes (6056230 simplex iterations) in 69.25 seconds (171.25 work units)
2026-03-05 18:30:04 - INFO - Thread count was 12 (of 12 available processors)
2026-03-05 18:30:04 - INFO - 
2026-03-05 18:30:04 - INFO - Solution count 0
2026-03-05 18:30:04 - INFO - 
2026-03-05 18:30:04 - INFO - Model is infeasible
2026-03-05 18:30:04 - INFO - Best objective -, best bound -, gap -
2026-03-05 18:30:04 - INFO - Set parameter TimeLimit to value 300
2026-03-05 18:30:04 - INFO - Set parameter MIPGap to value 0.3
2026-03-05 18:30:04 - INFO - Set parameter MIPFocus to value 3
2026-03-05 18:30:04 - INFO - Set parameter Heuristics to value 0.5
2026-03-05 18:30:04 - INFO - Set parameter LogToConsole to value 1
2026-03-05 18:30:04 - INFO - Gurobi Optimizer version 13.0.0 build v13.0.0rc1 (linux64 - "Ubuntu 20.04.6 LTS")
2026-03-05 18:30:04 - INFO - 
2026-03-05 18:30:04 - INFO - CPU model: AMD Ryzen 9 9950X3D 16-Core Processor, instruction set [SSE2|AVX|AVX2|AVX512]
2026-03-05 18:30:04 - INFO - Thread count: 6 physical cores, 12 logical processors, using up to 12 threads
2026-03-05 18:30:04 - INFO - 
2026-03-05 18:30:04 - INFO - Non-default parameters:
2026-03-05 18:30:04 - INFO - TimeLimit  300
2026-03-05 18:30:04 - INFO - MIPGap  0.3
2026-03-05 18:30:04 - INFO - Heuristics  0.5
2026-03-05 18:30:04 - INFO - MIPFocus  3
2026-03-05 18:30:04 - INFO - 
2026-03-05 18:30:04 - INFO - Academic license 2756663 - for non-commercial use only - registered to hu___@sjtu.edu.cn
2026-03-05 18:30:04 - INFO - Optimize a model with 2256 rows, 1025 columns and 7826 nonzeros (Min)
2026-03-05 18:30:04 - INFO - Model fingerprint: 0x33e3f9b4
2026-03-05 18:30:04 - INFO - Model has 3 linear objective coefficients
2026-03-05 18:30:04 - INFO - Variable types: 367 continuous, 658 integer (658 binary)
2026-03-05 18:30:04 - INFO - Coefficient statistics:
2026-03-05 18:30:04 - INFO -   Matrix range     [3e-01, 5e+02]
2026-03-05 18:30:04 - INFO -   Objective range  [4e-05, 9e-02]
2026-03-05 18:30:04 - INFO -   Bounds range     [9e-01, 3e+07]
2026-03-05 18:30:04 - INFO -   RHS range        [9e-01, 3e+02]
2026-03-05 18:30:04 - INFO - Presolved: 2084 rows, 875 columns, 7284 nonzeros
2026-03-05 18:30:04 - INFO - 
2026-03-05 18:30:04 - INFO - Continuing optimization...
2026-03-05 18:30:04 - INFO - 
2026-03-05 18:30:04 - INFO - 
2026-03-05 18:30:04 - INFO - Cutting planes:
2026-03-05 18:30:04 - INFO -   Learned: 44
2026-03-05 18:30:04 - INFO -   Gomory: 238
2026-03-05 18:30:04 - INFO -   Lift-and-project: 79
2026-03-05 18:30:04 - INFO -   Cover: 7
2026-03-05 18:30:04 - INFO -   Implied bound: 1
2026-03-05 18:30:04 - INFO -   MIR: 91
2026-03-05 18:30:04 - INFO -   Mixing: 2
2026-03-05 18:30:04 - INFO -   Flow cover: 534
2026-03-05 18:30:04 - INFO -   Inf proof: 19
2026-03-05 18:30:04 - INFO -   Network: 1
2026-03-05 18:30:04 - INFO -   RLT: 2
2026-03-05 18:30:04 - INFO -   Relax-and-lift: 9
2026-03-05 18:30:04 - INFO - 
2026-03-05 18:30:04 - INFO - Explored 46665 nodes (6056230 simplex iterations) in 69.25 seconds (171.25 work units)
2026-03-05 18:30:04 - INFO - Most recent optimization runtime was 0.00 seconds (0.00 work units)
2026-03-05 18:30:04 - INFO - Thread count was 12 (of 12 available processors)
2026-03-05 18:30:04 - INFO - 
2026-03-05 18:30:04 - INFO - Solution count 0
2026-03-05 18:30:04 - INFO - 
2026-03-05 18:30:04 - INFO - Model is infeasible
2026-03-05 18:30:04 - INFO - Best objective -, best bound -, gap -
2026-03-05 18:30:04 - INFO - Set parameter TimeLimit to value 3600
2026-03-05 18:30:04 - INFO - Set parameter MIPGap to value 0.8
2026-03-05 18:30:04 - INFO - Set parameter MIPFocus to value 3
2026-03-05 18:30:04 - INFO - Set parameter Heuristics to value 0.5
2026-03-05 18:30:04 - INFO - Set parameter LogToConsole to value 1
2026-03-05 18:30:04 - INFO - Gurobi Optimizer version 13.0.0 build v13.0.0rc1 (linux64 - "Ubuntu 20.04.6 LTS")
2026-03-05 18:30:04 - INFO - 
2026-03-05 18:30:04 - INFO - CPU model: AMD Ryzen 9 9950X3D 16-Core Processor, instruction set [SSE2|AVX|AVX2|AVX512]
2026-03-05 18:30:04 - INFO - Thread count: 6 physical cores, 12 logical processors, using up to 12 threads
2026-03-05 18:30:04 - INFO - 
2026-03-05 18:30:04 - INFO - Non-default parameters:
2026-03-05 18:30:04 - INFO - TimeLimit  3600
2026-03-05 18:30:04 - INFO - MIPGap  0.8
2026-03-05 18:30:04 - INFO - Heuristics  0.5
2026-03-05 18:30:04 - INFO - MIPFocus  3
2026-03-05 18:30:04 - INFO - 
2026-03-05 18:30:04 - INFO - Academic license 2756663 - for non-commercial use only - registered to hu___@sjtu.edu.cn
2026-03-05 18:30:04 - INFO - Optimize a model with 2256 rows, 1025 columns and 7826 nonzeros (Min)
2026-03-05 18:30:04 - INFO - Model fingerprint: 0x33e3f9b4
2026-03-05 18:30:04 - INFO - Model has 3 linear objective coefficients
2026-03-05 18:30:04 - INFO - Variable types: 367 continuous, 658 integer (658 binary)
2026-03-05 18:30:04 - INFO - Coefficient statistics:
2026-03-05 18:30:04 - INFO -   Matrix range     [3e-01, 5e+02]
2026-03-05 18:30:04 - INFO -   Objective range  [4e-05, 9e-02]
2026-03-05 18:30:04 - INFO -   Bounds range     [9e-01, 3e+07]
2026-03-05 18:30:04 - INFO -   RHS range        [9e-01, 3e+02]
2026-03-05 18:30:04 - INFO - Presolved: 2084 rows, 875 columns, 7284 nonzeros
2026-03-05 18:30:04 - INFO - 
2026-03-05 18:30:04 - INFO - Continuing optimization...
2026-03-05 18:30:04 - INFO - 
2026-03-05 18:30:04 - INFO - 
2026-03-05 18:30:04 - INFO - Cutting planes:
2026-03-05 18:30:04 - INFO -   Learned: 44
2026-03-05 18:30:04 - INFO -   Gomory: 238
2026-03-05 18:30:04 - INFO -   Lift-and-project: 79
2026-03-05 18:30:04 - INFO -   Cover: 7
2026-03-05 18:30:04 - INFO -   Implied bound: 1
2026-03-05 18:30:04 - INFO -   MIR: 91
2026-03-05 18:30:04 - INFO -   Mixing: 2
2026-03-05 18:30:04 - INFO -   Flow cover: 534
2026-03-05 18:30:04 - INFO -   Inf proof: 19
2026-03-05 18:30:04 - INFO -   Network: 1
2026-03-05 18:30:04 - INFO -   RLT: 2
2026-03-05 18:30:04 - INFO -   Relax-and-lift: 9
2026-03-05 18:30:04 - INFO - 
2026-03-05 18:30:04 - INFO - Explored 46665 nodes (6056230 simplex iterations) in 69.26 seconds (171.25 work units)
2026-03-05 18:30:04 - INFO - Most recent optimization runtime was 0.00 seconds (0.00 work units)
2026-03-05 18:30:04 - INFO - Thread count was 12 (of 12 available processors)
2026-03-05 18:30:04 - INFO - 
2026-03-05 18:30:04 - INFO - Solution count 0
2026-03-05 18:30:04 - INFO - 
2026-03-05 18:30:04 - INFO - Model is infeasible
2026-03-05 18:30:04 - INFO - Best objective -, best bound -, gap -
2026-03-05 18:30:04 - INFO - 
EMIB求解返回 0 个解（最多1个）。
0rc1 (linux64 - "Ubuntu 20.04.6 LTS")

CPU model: AMD Ryzen 9 9950X3D 16-Core Processor, instruction set [SSE2|AVX|AVX2|AVX512]
Thread count: 6 physical cores, 12 logical processors, using up to 12 threads

Non-default parameters:
TimeLimit  300
MIPGap  0.3
Heuristics  0.5
MIPFocus  3

Academic license 2756663 - for non-commercial use only - registered to hu___@sjtu.edu.cn
Optimize a model with 2256 rows, 1025 columns and 7826 nonzeros (Min)
Model fingerprint: 0x33e3f9b4
Model has 3 linear objective coefficients
Variable types: 367 continuous, 658 integer (658 binary)
Coefficient statistics:
  Matrix range     [3e-01, 5e+02]
  Objective range  [4e-05, 9e-02]
  Bounds range     [9e-01, 3e+07]
  RHS range        [9e-01, 3e+02]
Presolved: 2084 rows, 875 columns, 7284 nonzeros

Continuing optimization...


Cutting planes:
  Learned: 44
  Gomory: 238
  Lift-and-project: 79
  Cover: 7
  Implied bound: 1
  MIR: 91
  Mixing: 2
  Flow cover: 534
  Inf proof: 19
  Network: 1
  RLT: 2
  Relax-and-lift: 9

Explored 46665 nodes (6056230 simplex iterations) in 69.25 seconds (171.25 work units)
Most recent optimization runtime was 0.00 seconds (0.00 work units)
Thread count was 12 (of 12 available processors)

Solution count 0

Model is infeasible
Best objective -, best bound -, gap -
[EMIB] 单次求解无可行解: MIPGap=0.3, 状态码=3, 用时=0.00s, SolCount=0
[EMIB] 第二阶段无可行解，切换到第三阶段 MIPGap=0.8 继续尝试。
Set parameter TimeLimit to value 3600
Set parameter MIPGap to value 0.8
Set parameter MIPFocus to value 3
Set parameter Heuristics to value 0.5
Set parameter LogToConsole to value 1
Gurobi Optimizer version 13.0.0 build v13.0.0rc1 (linux64 - "Ubuntu 20.04.6 LTS")

CPU model: AMD Ryzen 9 9950X3D 16-Core Processor, instruction set [SSE2|AVX|AVX2|AVX512]
Thread count: 6 physical cores, 12 logical processors, using up to 12 threads

Non-default parameters:
TimeLimit  3600
MIPGap  0.8
Heuristics  0.5
MIPFocus  3

Academic license 2756663 - for non-commercial use only - registered to hu___@sjtu.edu.cn
Optimize a model with 2256 rows, 1025 columns and 7826 nonzeros (Min)
Model fingerprint: 0x33e3f9b4
Model has 3 linear objective coefficients
Variable types: 367 continuous, 658 integer (658 binary)
Coefficient statistics:
  Matrix range     [3e-01, 5e+02]
  Objective range  [4e-05, 9e-02]
  Bounds range     [9e-01, 3e+07]
  RHS range        [9e-01, 3e+02]
Presolved: 2084 rows, 875 columns, 7284 nonzeros

Continuing optimization...


Cutting planes:
  Learned: 44
  Gomory: 238
  Lift-and-project: 79
  Cover: 7
  Implied bound: 1
  MIR: 91
  Mixing: 2
  Flow cover: 534
  Inf proof: 19
  Network: 1
  RLT: 2
  Relax-and-lift: 9

Explored 46665 nodes (6056230 simplex iterations) in 69.26 seconds (171.25 work units)
Most recent optimization runtime was 0.00 seconds (0.00 work units)
Thread count was 12 (of 12 available processors)

Solution count 0

Model is infeasible
Best objective -, best bound -, gap -
[EMIB] 单次求解无可行解: MIPGap=0.8, 状态码=3, 用时=0.00s, SolCount=0
[EMIB] 搜索解失败，无合法解
  ✓ EMIB求解：返回 0 个解
